p edge 21 39
e 1 4
e 1 9
e 1 11
e 1 12
e 1 13
e 1 18
e 1 19
e 1 20
e 2 4
e 2 9
e 2 10
e 2 12
e 2 14
e 2 15
e 3 4
e 3 7
e 3 13
e 3 14
e 3 15
e 4 7
e 4 13
e 5 6
e 5 10
e 5 11
e 7 8
e 7 13
e 7 17
e 7 18
e 8 15
e 9 14
e 9 15
e 10 11
e 11 21
e 12 18
e 12 19
e 14 15
e 16 17
e 17 18
e 18 19
